%mem=4GB
%chk=single_point.chk
%nprocshared=128
#P b3lyp/Def2SVP ! ASE formatted method and basis
pop(Hirshfeld)
SCRF(Solvent=Water)
scf(tight)

Gaussian input prepared by ASE

0 1
H                 2.7852400000        2.3639690000       -1.1545170000
C                 1.8557350000        1.8405120000       -0.9264090000
C                 1.8151360000        0.4402790000       -0.9971360000
C                 0.7223680000        2.5691770000       -0.5587720000
H                 2.7054500000       -0.1267710000       -1.2685910000
C                 0.6292740000       -0.2212180000       -0.6813550000
H                 0.7538770000        3.6573620000       -0.4973040000
C                -0.4615500000        1.8801800000       -0.2812520000
C                 0.4206970000       -1.6789270000       -0.5377290000
N                -0.4708620000        0.5187020000       -0.3473490000
C                -1.8217380000        2.4123610000       -0.0912130000
C                 1.3199910000       -2.7088980000       -0.8315670000
N                -0.7775050000       -2.0017260000        0.0233290000
Ru               -1.9953790000       -0.4550510000        0.4010280000
C                -2.2694940000        3.7048520000       -0.3938540000
N                -2.7375340000        1.4217140000        0.1086180000
H                 2.2890730000       -2.4859300000       -1.2784150000
C                 0.9605690000       -4.0284710000       -0.5336390000
C                -1.1246780000       -3.2480230000        0.3593700000
O                -2.9800580000       -2.1754160000        1.3926490000
O                -3.6521230000       -0.7003660000       -0.9283490000
S                -1.0904180000       -0.0121820000        2.4334910000
H                -1.5548170000        4.5185700000       -0.5227650000
C                -3.6333890000        3.9102690000       -0.6197340000
C                -3.9914910000        1.5508610000       -0.3610400000
H                 1.6537580000       -4.8388240000       -0.7658050000
C                -0.2698030000       -4.3100830000        0.0755370000
C                -2.4514170000       -3.3245680000        1.1182260000
C                -4.5734330000        0.2127290000       -0.7970390000
C                 0.0413370000       -1.2885620000        3.0362760000
C                -2.4246940000       -0.1262200000        3.6428100000
O                -0.4017580000        1.3123790000        2.6168570000
H                 0.9014700000       -1.2933220000        2.3551160000
H                -0.4668820000       -2.2606270000        3.0285910000
H                 0.3522790000       -1.0038840000        4.0495070000
H                -3.1165030000        0.6892680000        3.3970960000
H                -2.9128220000       -1.1003150000        3.5162200000
H                -1.9908770000        0.0095190000        4.6423380000
H                -4.0013900000        4.9115020000       -0.8507700000
C                -4.4969480000        2.8047360000       -0.6860500000
H                -0.5676590000       -5.3243840000        0.3419460000
O                -2.8937600000       -4.4225880000        1.4393360000
O                -5.7546370000        0.0905830000       -1.0939040000
H                -5.5263430000        2.8937330000       -1.0356830000


