! engrad Opt PBE def2-SVP D3BJ 
%pal nprocs 32 end % output Print[P_hirshfeld] 1 end 
*xyz 0 1 
H   2.88881 2.25568 -1.33523
C   1.97813 1.72201 -1.09525
C   1.96597 0.33985 -1.01754
C   0.79333 2.4038 -0.87639
H   2.86093 -0.23836 -1.20639
C   0.7891 -0.31725 -0.67917
H   0.74845 3.48214 -0.95431
C   -0.36094 1.69501 -0.56582
C   0.64448 -1.74755 -0.5311
N   -0.35314 0.35384 -0.43503
C   -1.67933 2.27175 -0.42652
C   1.58613 -2.72371 -0.83996
N   -0.5543 -2.08677 -0.03275
Ru   -2.08637 -0.66464 0.18856
C   -2.02497 3.61477 -0.54216
N   -2.62292 1.34272 -0.22043
H   2.54507 -2.42756 -1.24529
C   1.28742 -4.06044 -0.62656
C   -0.8385 -3.36984 0.19811
O   -2.68621 -2.35296 1.07749
O   -4.04116 -0.54063 0.26976
S   -1.63297 -0.00793 2.36316
H   -1.24829 4.353 -0.69433
C   -3.35644 3.99225 -0.46704
C   -3.90329 1.69827 -0.14885
H   2.01156 -4.82918 -0.86548
C   0.05269 -4.38889 -0.08494
C   -2.17343 -3.51854 0.88601
C   -4.78388 0.49667 0.08162
C   -0.291 -0.91147 3.12332
C   -3.07688 -0.28416 3.37856
O   -1.29789 1.41208 2.37042
H   0.60796 -0.72924 2.54202
H   -0.55138 -1.96508 3.13307
H   -0.18214 -0.51985 4.13191
H   -3.8601 0.37867 3.02263
H   -3.36674 -1.32599 3.27368
H   -2.80169 -0.04601 4.40282
H   -3.6366 5.03473 -0.55181
C   -4.32013 3.00993 -0.28528
H   -0.23742 -5.40983 0.13065
O   -2.62998 -4.57327 1.24638
O   -5.98698 0.52692 0.07845
H   -5.37867 3.23196 -0.23289
*
