%NProcShared=32
%chk=./geo_opt.chk
%mem=4GB
#P opt b3lyp/tzp NoSymm IOp(6/7=3)

GEOM

0 1
Ru -2.08637179238368 -0.66464042968057 0.18856289579918
N -0.55430070012038 -2.08677199782981 -0.03274733787243
C -0.83850476106812 -3.36983845416861 0.19810717284209
C 0.05268825557634 -4.38889499550590 -0.08494127475529
C 1.28742481897566 -4.06043950850463 -0.62655915792391
C 1.58613368828857 -2.72370692316703 -0.83995914434142
C 0.64447791002735 -1.74754601438560 -0.53110271947429
O -4.04116171604903 -0.54062571158711 0.26975772244951
H -0.23742355335162 -5.40983383623503 0.13065100073294
H 2.54507359800999 -2.42755530863373 -1.24528841537107
H 2.01156089358904 -4.82917552602344 -0.86548054466137
N -0.35313505585013 0.35383816417851 -0.43502968771516
C 0.78910076515037 -0.31724683983569 -0.67917110702407
C 1.96597418652201 0.33984713687592 -1.01754396664603
C 1.97813107357956 1.72200967714917 -1.09524707084473
C 0.79333370161157 2.40380057088821 -0.87639265062967
C -0.36093849008921 1.69500905992822 -0.56582072541850
H 0.74845046872266 3.48214411522914 -0.95431279590668
H 2.86092668338573 -0.23835565614649 -1.20638514159843
H 2.88881149110480 2.25567921164519 -1.33523159734916
N -2.62291664666351 1.34272078156156 -0.22042536389399
C -1.67932587480480 2.27174694486349 -0.42652276589963
C -2.02497346691649 3.61477365020979 -0.54215888205087
C -3.35643921484093 3.99225188906576 -0.46703759596584
C -4.32013095815796 3.00992505459051 -0.28528041964923
C -3.90328608364503 1.69827378405107 -0.14884916053267
H -5.37866806181362 3.23196126620736 -0.23289187628321
H -1.24828796954201 4.35299747381966 -0.69433107741989
H -3.63660081889610 5.03472503722883 -0.55181280566451
C -4.78387757059405 0.49667446241939 0.08161822816129
O -5.98697697703745 0.52692410364518 0.07845187051940
C -2.17342768107989 -3.51854121548982 0.88600769985864
O -2.68621076219791 -2.35295695165872 1.07749080536715
O -2.62997742156698 -4.57327124537430 1.24638072212944
S -1.63297115165292 -0.00792632311073 2.36316130180009
C -3.07688071683825 -0.28416408160641 3.37856107215436
C -0.29100171742262 -0.91146791476182 3.12331870066217
O -1.29789266160071 1.41207610721338 2.37042259843238
H 0.60795805052336 -0.72923820433575 2.54202308990506
H -0.55138022239057 -1.96507717430293 3.13306659085008
H -0.18213950640458 -0.51985287078457 4.13190980079357
H -3.86010491362540 0.37867441783720 3.02262939488841
H -2.80169213360947 -0.04601226153169 4.40282101773187
H -3.36673604485356 -1.32599462394714 3.27368319981442


--Link1--
%NProcShared=32
%chk=./geo_opt.chk
%mem=4GB
#P opt b3lyp/tzp NoSymm pop=Hirshfeld scf=tight
\SINGLE POINT

0 1
